File : Instances/p67
Use 142 s

25261

0 0 0 0 1 0 1 0 0 0 0 0 0 1 0 0 1 1 1 0 1 0 0 1 1 1 0 0 1 0 
18 6 24 24 16 6 16 28 18 28 4 28 13 13 28 18 13 20 16 24 18 16 23 24 23 18 24 17 4 23 6 4 4 16 28 6 20 20 24 16 18 20 6 4 20 4 13 16 28 17 24 16 24 16 20 6 18 20 18 25 4 17 18 20 13 25 23 17 28 25 18 6 6 20 23 23 20 23 20 16 23 17 20 25 4 13 6 23 24 25 28 6 25 25 17 13 28 6 17 28 28 16 25 18 4 24 4 24 16 13 17 4 18 6 6 20 28 25 17 20 20 25 17 6 4 16 24 25 4 17 28 24 25 20 23 20 13 13 28 23 6 18 28 25 25 23 24 16 18 25 24 17 23 17 13 28 23 16 13 13 13 28 13 24 23 18 23 4 13 16 13 20 28 17 4 16 17 20 4 20 23 16 24 6 25 20 28 23 17 16 24 16 6 4 25 6 25 24 23 6 
